&control
   prefix = '!PREFIX!'
   calculation = 'scf'
   restart_mode = 'from_scratch'
   wf_collect = .true.
   tstress = .true.
   tprnfor = .true.
   outdir = './'
   wfcdir = './'
   pseudo_dir = './'
/
&system
   celldm(1) = 1.0
   ibrav = 0
   nbnd = 60
   ecutwfc = 160.0
   nat = 660
   ntype = 3
/
&electrons
   electron_maxstep = 100
   conv_thr = 1.0d-10
   mixing_mode = 'plain'
   mixing_beta = 0.7
   mixing_ndim = 8
   diagonalization = 'david'
   diago_david_ndim = 4
   diago_full_acc = .true.
/
CELL PARAMETERS
	12.33	0.0	0.0
	0.0	12.8137	0.0
	0.0	0.0	39.796
ATOMIC SPECIES
	C	12.0107	C.UPF 
	O	15.9994	O.UPF 
	H	1.0079	H.UPF 
ATOMIC_POSITIONS angstrom
	C	0.433527022623	4.97558029899	3.47089093006
	C	0.504269290395	4.926310832	6.75996953609
	C	1.62533977052	5.70616053333	3.46029759967
	C	1.65944002839	7.16555744204	3.4301048312
	C	1.70001504622	7.07509359162	6.68385119706
	C	0.460815270581	6.33060489523	6.64929214983
	C	1.69760821067	8.49299141309	6.6573142008
	C	0.439218565504	7.86200042585	3.38800966797
	C	0.431547997593	9.31481179888	3.31599966159
	C	0.489678854447	9.24982757671	6.69301773566
	C	1.63791438261	10.021056945	3.23870525645
	C	1.64610456593	11.4593096049	3.21050385604
	C	1.7770953723	11.3686905607	6.61437417872
	C	0.466423578737	10.634530392	6.61383420673
	C	1.7222099	12.7558269137	6.61599715241
	C	0.365419788821	12.1396347458	3.28710547755
	C	0.363769497726	0.763427760918	3.26227452997
	C	0.479765038241	0.644545146291	6.57282307737
	C	1.59831008911	1.49199265348	3.35596312961
	C	1.61643950359	2.89585928047	3.40089388583
	C	1.65892169674	2.82527364112	6.73380075593
	C	0.455195628961	2.04717084314	6.61142847609
	C	1.71305289345	4.23047007301	6.76509414355
	C	0.420577140155	3.57734988339	3.44649620167
	C	2.89324856116	5.03958822238	3.41589878247
	C	2.97199383514	4.9660568462	6.71251506464
	C	4.11306203175	5.72673266364	3.22023258518
	C	4.14455593139	7.13073562333	3.21069319208
	C	4.20212049515	7.12455815678	6.58641706836
	C	2.96107860555	6.40735851153	6.73769219584
	C	4.16468919002	8.53141009196	6.44674824404
	C	2.90100834378	7.85308458811	3.27580702916
	C	2.88512287729	9.2826123017	3.34909687279
	C	2.91225618781	9.19048975229	6.53481901625
	C	4.11045805172	10.0168676638	3.26904094343
	C	4.12017521744	11.475356214	3.24949848068
	C	4.18452041644	11.3483124777	6.52415082784
	C	2.96911747232	10.6467479229	6.54295472287
	C	4.17379309837	12.7856200689	6.60955841249
	C	2.87484735544	12.1593866761	3.22253466261
	C	2.86183036216	0.709327670318	3.39212914314
	C	2.92825135651	0.683541061836	6.68349776575
	C	4.10897437755	1.47440277462	3.34519976238
	C	4.08344194463	2.86108042211	3.34240583529
	C	4.16209712313	2.8180348825	6.73759005663
	C	2.93405841909	2.11573788231	6.73324999771
	C	4.20821644966	4.2385843431	6.72460947582
	C	2.88654443599	3.62806841676	3.39682783787
	C	5.3270548299	4.99787572192	3.24351921803
	C	5.427882945	4.95371620665	6.73054455202
	C	6.58303245046	5.74860966271	3.1911699002
	C	6.59151882314	7.1199743059	3.27714586568
	C	6.62151413526	7.08972772088	6.57386503837
	C	5.41002036847	6.37950412976	6.713978058
	C	6.64196578296	8.51815955891	6.53120620125
	C	5.39654979087	7.88603300874	3.26913095431
	C	5.35604234022	9.28900499389	3.29648479245
	C	5.43979830402	9.24366543237	6.44317365313
	C	6.5917104338	10.0159224769	3.31551458507
	C	6.61464320848	11.4427251473	3.30095870962
	C	6.6602963207	11.3425898774	6.52933837357
	C	5.44079354948	10.6286876935	6.47507395242
	C	6.61599049549	12.7738589693	6.56506030767
	C	5.32690884512	12.1449323241	3.3027487898
	C	5.35128352001	0.751164231208	3.27893133986
	C	5.40781944987	0.685394652291	6.58811860815
	C	6.56280989746	1.47925413381	3.28309936703
	C	6.53855411476	2.88341848815	3.37301898657
	C	6.59756941234	2.78686544274	6.71988586406
	C	5.36635372272	2.09274759973	6.69541420604
	C	6.638746375	4.19681920299	6.73438919856
	C	5.28726562358	3.57648302497	3.31256910281
	C	7.82260339193	5.02511479987	3.26115314221
	C	7.86772904384	4.9424960571	6.6976518075
	C	9.05361164502	5.7013663705	3.22539625466
	C	9.05258372156	7.11059197866	3.1948615847
	C	9.09175337641	7.04937259961	6.68757970292
	C	7.85438744384	6.34062320247	6.6909029244
	C	9.09228708433	8.46131311695	6.74291472885
	C	7.78551930551	7.89624913498	3.22169714877
	C	7.7979778841	9.32219493442	3.27380084233
	C	7.86937584415	9.17427208996	6.65377277052
	C	9.06388166751	10.0279445897	3.32776375381
	C	9.06656078967	11.4595281228	3.31439206767
	C	9.08963834701	11.3528762429	6.6197365324
	C	7.87869274773	10.5836834975	6.56083252762
	C	9.08501283297	12.7554768385	6.64307387083
	C	7.77493705342	12.2017125288	3.3395252893
	C	7.7494331915	0.791868803331	3.29418859461
	C	7.85494452836	0.686976931263	6.6512192668
	C	9.01518534233	1.47191844941	3.36026866408
	C	9.06577993945	2.87788288251	3.37069488873
	C	9.15593790568	2.83842107343	6.68502006797
	C	7.88191501941	2.1152342079	6.66035922652
	C	9.11590800264	4.25472288642	6.72009422219
	C	7.76953495895	3.60626703631	3.37181222176
	C	10.3031985123	5.02145543084	3.35974606327
	C	10.3245486405	4.97638229403	6.78120893397
	C	11.5463159421	5.75626623876	3.49199126318
	C	11.5187775665	7.17005525035	3.40808305003
	C	11.5604586576	7.1261584091	6.69435937241
	C	10.3542705908	6.41922871467	6.76283269314
	C	11.5702830092	8.52688995421	6.7330932855
	C	10.2721123897	7.86095375624	3.26683008015
	C	10.2734369511	9.2719385428	3.32469522246
	C	10.3257614932	9.18297430572	6.74735424839
	C	11.5124413432	9.96968455966	3.34741851835
	C	11.4765880863	11.4450368704	3.28133132622
	C	11.5568827468	11.3327165543	6.69183000943
	C	10.3335526194	10.6628413329	6.77455272315
	C	11.5405813128	12.8090997007	6.55212678813
	C	10.2546384763	12.1776532058	3.26085412775
	C	10.2261694808	0.77002895192	3.30839041235
	C	10.3175790501	0.725883307205	6.66748055543
	C	11.4762601763	1.46080845613	3.25181463553
	C	11.5354853563	2.84523692899	3.33445286667
	C	11.5641610471	2.79694511867	6.68427960289
	C	10.3387350905	2.10356948261	6.63711975163
	C	11.5537719412	4.22146006522	6.73917474823
	C	10.3150949257	3.6284282093	3.37012997168
	C	12.1093472189	5.16360228025	10.0425
	C	12.2610027036	4.98987788004	13.39
	C	1.0094776998	5.87601161491	10.0425
	C	1.02682790938	7.26622969577	10.0425
	C	1.13684067133	7.18438718584	13.39
	C	12.2592415637	6.44626295332	13.39
	C	1.14109423158	8.61132746412	13.39
	C	12.127767082	7.96352824893	10.0425
	C	12.1271228955	9.37644656027	10.0425
	C	12.230051547	9.30349050235	13.39
	C	0.988649700439	10.0868212803	10.0425
	C	0.986957896964	11.5046599757	10.0425
	C	1.15891465617	11.4403373443	13.39
	C	12.2504398981	10.7327889615	13.39
	C	1.18152464261	0.0421325245759	13.39
	C	12.1272918121	12.2462496672	10.0425
	C	12.1365758868	0.883845768807	10.0425
	C	12.2905970923	0.747918790032	13.39
	C	1.02914035569	1.59151634158	10.0425
	C	1.02133694757	3.01595978761	10.0425
	C	1.16008090551	2.86652351063	13.39
	C	12.2603468298	2.17373901766	13.39
	C	1.13050127504	4.29156533956	13.39
	C	12.1233220998	3.71416234532	10.0425
	C	2.2788603522	5.11960286759	10.0425
	C	2.37484143893	5.04640208563	13.39
	C	3.49767599796	5.83202431679	10.0425
	C	3.49820739913	7.22186661354	10.0425
	C	3.60920324834	7.13872418805	13.39
	C	2.36680580099	6.4481108463	13.39
	C	3.58558668843	8.52657965751	13.39
	C	2.2550728062	7.98378499277	10.0425
	C	2.23657971514	9.38729388981	10.0425
	C	2.39164552163	9.30376082038	13.39
	C	3.42947523381	10.10050276	10.0425
	C	3.44945791512	11.5278891875	10.0425
	C	3.6072732905	11.4146805531	13.39
	C	2.40210032631	10.7147512593	13.39
	C	3.63043487316	0.00512253634412	13.39
	C	2.23552291414	12.2270778131	10.0425
	C	2.22919331505	0.862908176681	10.0425
	C	2.39836049006	0.737256955632	13.39
	C	3.4663265966	1.56159902646	10.0425
	C	3.43965536585	3.00211837285	10.0425
	C	3.60591291749	2.94451633487	13.39
	C	2.41205865642	2.17235487411	13.39
	C	3.62836497062	4.35453972281	13.39
	C	2.22229031125	3.72507944541	10.0425
	C	4.71624119949	5.08595549756	10.0425
	C	4.87168045758	5.0246129525	13.39
	C	5.89571987329	5.85270333912	10.0425
	C	5.91185184595	7.24621600802	10.0425
	C	6.09857840058	7.1359183791	13.39
	C	4.85607013095	6.40434729348	13.39
	C	6.06644123612	8.55525676439	13.39
	C	4.70948094198	7.96265316206	10.0425
	C	4.66894138011	9.37641039817	10.0425
	C	4.84332665311	9.29728873622	13.39
	C	5.89575975737	10.0896472901	10.0425
	C	5.95175047594	11.4813694121	10.0425
	C	6.0817641012	11.4726829119	13.39
	C	4.85980943216	10.7016275453	13.39
	C	6.08024268438	0.0599319929921	13.39
	C	4.72419923457	12.2407791605	10.0425
	C	4.69400046521	0.851612427767	10.0425
	C	4.84900883257	0.75774782245	13.39
	C	5.94379560989	1.54784013584	10.0425
	C	5.95777533007	2.94905117398	10.0425
	C	6.08777454215	2.86916921577	13.39
	C	4.84481858617	2.17738733367	13.39
	C	6.10666290852	4.3040888864	13.39
	C	4.68869882359	3.67790893273	10.0425
	C	7.10994066496	5.09699325375	10.0425
	C	7.32009207609	5.06528954066	13.39
	C	8.39390005221	5.78666677376	10.0425
	C	8.35609421424	7.21810765605	10.0425
	C	8.5686396006	7.17434508667	13.39
	C	7.31776606772	6.46725846322	13.39
	C	8.54003325738	8.53685873644	13.39
	C	7.15837760901	7.97687179047	10.0425
	C	7.15145375158	9.37284351764	10.0425
	C	7.29443458209	9.27441461919	13.39
	C	8.37922786393	10.0900554843	10.0425
	C	8.42027467752	11.5184778209	10.0425
	C	8.55965348303	11.4237475996	13.39
	C	7.30011233807	10.6896734065	13.39
	C	8.57135395968	0.0147779022359	13.39
	C	7.18614369136	12.1950547901	10.0425
	C	7.17812093122	0.791982649694	10.0425
	C	7.35655522182	0.756816056492	13.39
	C	8.41954900411	1.56698649256	10.0425
	C	8.43017020567	2.93950101258	10.0425
	C	8.5417804919	2.90956374802	13.39
	C	7.34267304006	2.18318295405	13.39
	C	8.57909914365	4.32365575848	13.39
	C	7.16490386296	3.66892204867	10.0425
	C	9.63139846741	5.07134506956	10.0425
	C	9.77575350493	4.99827481937	13.39
	C	10.8430081615	5.81109541181	10.0425
	C	10.8508544298	7.27157462425	10.0425
	C	11.005428636	7.13649977467	13.39
	C	9.7961053734	6.42893917125	13.39
	C	10.9929314785	8.54844722384	13.39
	C	9.60146455577	7.9790825311	10.0425
	C	9.63594614645	9.4050394615	10.0425
	C	9.78952479441	9.31607705804	13.39
	C	10.8990625262	10.1137907482	10.0425
	C	10.894016613	11.540153498	10.0425
	C	11.0234375533	11.4254811438	13.39
	C	9.8000223217	10.735378173	13.39
	C	11.0637753598	0.0583992018033	13.39
	C	9.64579895717	12.2679466275	10.0425
	C	9.6252793904	0.875044439477	10.0425
	C	9.8138681793	0.694117350583	13.39
	C	10.9089159258	1.57957491017	10.0425
	C	10.9007477529	2.9947569545	10.0425
	C	11.0517296288	2.87505385582	13.39
	C	9.79014332825	2.14309535647	13.39
	C	11.0233809517	4.30761379092	13.39
	C	9.66579282402	3.66014922817	10.0425
	C	0.330053173502	5.06301964623	16.9271217537
	C	0.221569513069	5.00922551263	20.2398554558
	C	1.53048471727	5.81326010399	17.0390639781
	C	1.56251717786	7.24972430124	17.0470260273
	C	1.46965312117	7.15097222538	20.3003105819
	C	0.244256613166	6.42718893147	20.2829380304
	C	1.51425533826	8.55216504665	20.5039808906
	C	0.306820560744	7.97853735493	16.9147155436
	C	0.293379904816	9.38628693913	16.8737027795
	C	0.180243321	9.32153888652	20.5527773652
	C	1.55136402603	10.1137322247	16.8555314824
	C	1.56732169147	11.5168724846	16.8128873817
	C	1.40307426404	11.4307702153	20.3029990047
	C	0.163628493375	10.720943256	20.3921328779
	C	1.40581109354	0.0364040104597	20.2245933229
	C	0.328320122314	12.2514092561	16.8425100019
	C	0.255947113052	0.830939688683	16.8006261712
	C	0.157494739354	0.784278223219	20.2730688939
	C	1.52569659344	1.50503013123	16.8520904997
	C	1.51875703695	2.89785719605	16.8579000735
	C	1.38552058801	2.87245176002	20.2602509896
	C	0.178585847215	2.17499866923	20.2611743581
	C	1.42386888638	4.29093953473	20.3268218662
	C	0.336908267476	3.69996867436	16.9257409321
	C	2.80942639118	5.110577192	17.020439554
	C	2.64714771956	5.00393001815	20.3184835899
	C	4.01186748871	5.84971938784	16.910598543
	C	4.00437204342	7.29502549978	16.9745965682
	C	3.91524725842	7.11439661873	20.2984513785
	C	2.70487848136	6.38738084699	20.3469830277
	C	3.9305761184	8.56346893393	20.2019025498
	C	2.75366595257	7.99402912659	16.9862195459
	C	2.76614383355	9.3755597797	16.7941123879
	C	2.7160979621	9.29100149469	20.3367473965
	C	3.99777554762	10.1137492464	16.7591807147
	C	4.00290892338	11.5276167646	16.6544249771
	C	3.87569586091	11.4362697978	20.1886723841
	C	2.6821057155	10.718662455	20.3147855937
	C	3.89039067761	0.0625732310487	20.2021304294
	C	2.78857024484	12.2307408207	16.7640167245
	C	2.77500417241	0.831506758122	16.8065021848
	C	2.65389670862	0.783068358139	20.1881057746
	C	4.01615709776	1.52388683509	16.89115791
	C	4.00710253599	2.96857361806	16.9195434548
	C	3.91556944147	2.91240994848	20.2511030118
	C	2.66701199508	2.21329583787	20.2581432203
	C	3.90124732215	4.31831556243	20.2655585303
	C	2.78196564543	3.63059352085	16.9374167715
	C	5.25553202856	5.12995804153	16.8819740344
	C	5.12819380081	5.00779928442	20.2246348642
	C	6.4889032382	5.79796822204	16.6991284531
	C	6.47367779787	7.26174105858	16.8300119867
	C	6.37190709283	7.16696306323	20.2088091302
	C	5.12155578451	6.45568888938	20.2787537496
	C	6.38725314455	8.58935830095	20.1548079102
	C	5.25338779122	7.94121172768	16.8913253465
	C	5.25711693939	9.38036330989	16.8221598452
	C	5.13750977362	9.28348132901	20.1173901631
	C	6.44494319947	10.1237633619	16.7679473599
	C	6.48567713856	11.5502367155	16.7427032491
	C	6.33050314836	11.3791092438	20.0187928798
	C	5.10025922391	10.6974690182	19.9857528868
	C	6.36527631543	12.7967816623	20.040686927
	C	5.24738760569	12.2214985736	16.7160020507
	C	5.30155224762	0.823021465251	16.7816703544
	C	5.1443754927	0.778471377688	20.2141013183
	C	6.50396688375	1.61770809397	16.7314146171
	C	6.47988394642	3.00485392375	16.7791064827
	C	6.31949333146	2.89372111019	20.1593766545
	C	5.08763340492	2.18920577049	20.2068064994
	C	6.32279412029	4.30193137663	20.1276363763
	C	5.25197789792	3.71833933878	16.8383633563
	C	7.76402534915	5.1135096264	16.6724335231
	C	7.5563410255	5.02481047621	20.1267140964
	C	8.97039268614	5.79782472635	16.7407744454
	C	8.9493967793	7.22263988481	16.7985066075
	C	8.87590768786	7.17736484601	20.2982161025
	C	7.60223458562	6.44718463996	20.2675374575
	C	8.87694335646	8.61588998053	20.3569985573
	C	7.70762368367	7.9455427682	16.8465263339
	C	7.69902592518	9.39936167783	16.8226137175
	C	7.62362751618	9.31521419051	20.1015975063
	C	8.95079998241	10.0981174589	16.9147099156
	C	8.95598825686	11.5309644339	16.8972845866
	C	8.79189179319	11.4310602529	20.1784139531
	C	7.60413677599	10.7106553367	20.1434729371
	C	8.83144805277	0.024719541884	20.1118495319
	C	7.73213830759	12.2498691781	16.8686644909
	C	7.72336423872	0.888712531382	16.8272312279
	C	7.57303879814	0.722938418528	20.0532268896
	C	8.95073069996	1.59001745081	16.8250678087
	C	8.9450932658	2.98032016138	16.7769114773
	C	8.81252640808	2.87762238309	20.1283041177
	C	7.58763667065	2.15503672949	20.1288214549
	C	8.82533793748	4.31555675431	20.1162172505
	C	7.73321674665	3.71779807763	16.6862768983
	C	10.187366999	5.08337527079	16.7421472625
	C	10.0537906138	5.01991574183	20.2251224885
	C	11.4355266917	5.80468211306	16.8174883773
	C	11.408747525	7.26334479327	16.8514358148
	C	11.3322525178	7.11394512296	20.4060438544
	C	10.0957848709	6.44059848703	20.346386352
	C	11.3094970634	8.56287172716	20.4714012737
	C	10.1423510032	7.95694700636	16.8412645465
	C	10.1644043533	9.38727069499	16.9398737869
	C	10.0789847716	9.26977114367	20.4478628277
	C	11.4141073694	10.1009081852	17.0447650189
	C	11.4390675927	11.5277764396	16.984510082
	C	11.2406957207	11.4175818424	20.3436519805
	C	10.042383375	10.6955092771	20.3304985693
	C	11.2345911633	0.0350876136345	20.2313998541
	C	10.1901995145	12.2282976932	16.951138514
	C	10.1594187973	0.842155577751	16.8614151944
	C	10.0230205986	0.767391064237	20.2329239939
	C	11.3601292787	1.55564435357	16.8908157589
	C	11.390812057	3.05201179328	16.9316264944
	C	11.2742972077	2.86207986806	20.2882727227
	C	10.036236215	2.18591758961	20.1460143075
	C	11.2804035398	4.29775583334	20.2302993091
	C	10.1942700232	3.70334596354	16.8493638272
	O	2.75204394827	1.22214653451	28.3433918488
	O	9.4555849147	12.485895996	28.1981068314
	O	3.82762678728	0.907269273354	24.5577318426
	O	11.0115847064	9.65417102106	27.8919948746
	O	7.29975619908	8.06238305815	0.0620272724882
	O	6.62515077808	0.23737974348	35.9182007307
	O	5.24090965826	3.64190151635	38.3448513058
	O	9.72312834089	0.812528186673	0.443572380239
	O	3.93970971698	5.96816290557	27.1879440189
	O	10.7242300101	6.22010530533	33.1790880479
	O	2.22115181243	2.6580450362	31.93554924
	O	2.12253768063	0.482757934737	33.4690209041
	O	3.76063879999	9.54086452241	23.9843163964
	O	4.68074169708	10.3417827043	33.1811817904
	O	8.98466201408	9.8079271433	34.5481544843
	O	1.15148447199	2.55980321053	23.6604879747
	O	8.12360484083	5.38665843964	32.4669471364
	O	12.0399656981	10.4874756329	0.406418307575
	O	10.7771361262	8.78577913954	32.2285002763
	O	9.65079202826	10.2303972128	37.4706557397
	O	4.37387177303	8.36698984752	35.3704840264
	O	4.64135527898	8.23061828278	39.6908172857
	O	2.48046576047	11.637040038	26.831498789
	O	5.94335990843	3.82352125784	35.7476791424
	O	11.1909269077	7.06073620727	0.35767318293
	O	7.90532327286	0.06912910269	31.9958274905
	O	4.01609926132	2.9346858043	26.011140604
	O	11.294250329	0.0794480056049	33.8708965564
	O	10.3305342396	0.835572410754	25.7354419207
	O	9.18068039659	9.81490034533	30.0083450491
	O	1.34369628076	3.46123346027	27.6404840436
	O	1.6680018982	7.44435404926	23.5953510745
	O	9.50672680669	7.84622635572	38.230549726
	O	8.25877104051	5.97332889738	29.4962658565
	O	12.1442102953	11.2463336701	26.1069676382
	O	4.42227720083	10.3497166036	30.6972590724
	O	0.379011620539	4.59031904982	31.9955455055
	O	8.80431468925	1.74162739031	23.6907309006
	O	10.3853654084	0.0346108599006	30.5803824437
	O	4.44626344423	5.68467946644	32.0338361828
	O	6.46228835439	5.62953264795	23.7053102931
	O	5.28004354162	5.57300076033	29.467545476
	O	6.39845239109	10.7004249855	24.1002614108
	O	4.35511366526	3.01997105822	30.0388584577
	O	11.210973253	4.522673811	38.6623828013
	O	2.40701045253	12.1862205722	37.4562117557
	O	5.22770336878	7.38176030755	25.1490658374
	O	5.30550583939	11.101352425	26.8234179398
	O	11.243543362	6.50667836073	36.1142762136
	O	9.06421192429	7.16017499599	23.2284457639
	O	1.67525355002	6.42488520477	28.7389547476
	O	1.96183698073	9.64923147843	28.945045214
	O	2.59204316253	3.36516724476	36.5273931378
	O	3.65914485762	1.01401552187	35.6937505875
	O	5.66088815554	12.015450142	38.2915881061
	O	7.61719493543	5.87948005496	35.9248067338
	O	1.741483367	7.03110691039	31.3111925899
	O	12.0782816237	0.0457301683782	39.1384905692
	O	6.44099112419	2.66495793783	26.6758816423
	O	7.84372305829	3.13424705876	29.2380910832
	O	3.83484636929	9.90458030171	37.7205280853
	O	11.6454912411	3.18333318529	25.5854245224
	O	7.29987377616	2.63969955762	32.7078131789
	O	1.4799568162	4.49436459676	0.156018468283
	O	2.97585138981	4.76249508963	23.4532549932
	O	10.576486892	2.5770469518	34.4178774847
	O	1.02715493133	8.20745406581	26.6700056704
	O	8.88379814604	3.09819902593	38.9563496425
	O	1.256251884	7.84505076522	37.0066297579
	O	4.6675507281	1.41479831747	39.6321366776
	O	8.28461781722	2.31193073227	36.1675365127
	O	4.72106840237	3.19751556339	33.400810242
	O	5.55175379817	0.0346602717153	30.3511115367
	O	6.98232010172	8.33630762912	34.8217532117
	O	3.16736401054	6.1506701195	35.9878569247
	O	1.31657678795	8.44993308275	0.109544977744
	O	9.80476717978	5.82724105115	26.0223962465
	O	6.39624954225	7.52857180119	32.1063495594
	O	1.29753986144	10.1336724574	35.2655718549
	O	3.58105813296	5.82529344738	38.5540224782
	O	11.2752016256	11.1358090653	23.7207021334
	O	0.863101632249	9.227567046	32.6474277217
	O	7.97844696074	3.89394127782	25.0108115965
	O	6.38888646269	8.55433333261	27.3722108443
	O	10.8968809898	6.71789590462	28.8039239712
	O	12.1389414719	3.70349183509	36.1686107892
	O	6.0934780329	0.507157824361	23.1171630903
	O	1.37109219175	12.5336772126	23.4055029412
	O	7.24412700178	11.4453994272	33.9153986612
	O	7.3421409276	5.14973731957	38.9757970447
	O	6.80914301056	9.00083598423	29.9411076025
	O	10.3471002984	2.70022837801	31.2424175176
	O	9.0634157779	8.62042447304	26.3271084377
	O	11.5968837773	6.30346058087	23.5556405523
	O	2.11393166783	1.84696398857	39.2783983215
	O	7.96657021766	11.1937617714	39.4704456641
	O	0.402154582212	11.5062418076	30.6964962613
	O	8.85081608505	9.75127179374	23.9457912668
	O	11.6852297007	11.7883985752	36.3379367674
	O	6.92555534384	0.139113333965	27.7419782905
	H	3.2051206758	1.4584056587	29.164553953
	H	1.97007957571	1.75563551981	28.3082537743
	H	9.32465856917	11.5675711312	28.1391561428
	H	9.829045599	12.5888031855	29.1344567836
	H	3.09157132695	0.4461867478	24.1674860312
	H	4.62312083378	0.865260839035	23.9304010602
	H	10.369846169	9.86380499595	28.6331830322
	H	10.3528445336	9.29651556667	27.2180783879
	H	7.55467924892	8.05850781554	0.992654070045
	H	8.04174438419	7.84544526733	39.2537668424
	H	7.28660123569	1.01038576649	35.951536991
	H	6.53237752244	12.7585244522	36.8746541888
	H	4.51685358813	4.29301890923	38.4955496865
	H	5.24915230138	3.56724734625	37.3031941737
	H	9.0379652621	0.258248476679	39.776160419
	H	9.54608659343	1.75611438681	0.175733856742
	H	4.37161488057	6.63101995538	26.5300876176
	H	3.80144399096	5.16702655459	26.6189525534
	H	10.7840335354	6.36723440822	34.1003793317
	H	11.5580830211	5.6433695059	33.0146304743
	H	2.10962493075	1.76184737857	32.3765071749
	H	2.96870697268	2.52312873191	31.2978865494
	H	2.61494113618	0.743070504709	34.2810615183
	H	2.53668177208	12.4150520376	33.159564246
	H	4.59713644272	10.0514453164	23.8789446182
	H	3.26592302591	9.90494192075	24.7624857122
	H	4.53192339568	9.5906492309	33.7742148494
	H	4.69282577789	10.0539133665	32.2680780493
	H	8.57953822239	10.5504257582	34.0900389539
	H	9.65859598358	9.5222794818	33.8927088625
	H	0.469438444074	2.9209026141	24.313518594
	H	0.647268086053	2.66013032694	22.810723482
	H	9.0074366354	5.59732734244	32.9527622194
	H	7.77223752444	4.38214294429	32.5315366622
	H	11.3487604282	10.0939305693	39.6602097319
	H	12.1141437255	11.4332752223	0.094059843332
	H	10.3746885181	8.9801380369	31.369585464
	H	10.7096510538	7.7581089816	32.3758724602
	H	8.99306660086	10.4162841246	36.7718090013
	H	9.55022116777	9.23832985477	37.6225032411
	H	5.36020031554	8.58369703709	35.3319680377
	H	4.08136107625	8.90788633749	36.1903991145
	H	4.43414303333	7.48141088497	39.1231170878
	H	5.61757322577	8.37631359322	39.59710819
	H	2.65051697008	12.5596719501	27.2653778312
	H	3.40572896846	11.3351391873	26.639699598
	H	5.50744031745	3.59384794571	34.8618068995
	H	6.37329751618	4.75686930305	35.7256128166
	H	11.3234832912	6.13091243327	0.0370437867529
	H	12.1427679499	7.34908191021	0.361491863952
	H	7.03311455757	0.110243015999	31.5845911619
	H	7.59144242984	12.3657715519	32.8420233973
	H	3.94455743543	2.08188661272	25.3651337667
	H	3.43722696231	2.78664422697	26.7742416766
	H	11.4115233498	12.4589225395	34.7403841778
	H	12.2340437709	0.170374029835	33.6717653839
	H	11.2313034468	0.385682101174	25.7544714092
	H	10.013433673	0.5132606981	26.615233862
	H	8.20600563562	9.50383773191	29.8653598111
	H	8.94616354086	10.6880372211	30.3682255892
	H	0.671248252491	3.58199168776	26.910333305
	H	1.13910306126	4.20424334916	28.2467670017
	H	2.11787189238	8.18055752065	23.1235626173
	H	2.16795197435	6.64678575344	23.3620386032
	H	9.8214377552	7.29938314354	37.4311170608
	H	10.3159163927	7.71520404125	38.8011277187
	H	9.22826868727	6.0554828244	29.2413784412
	H	8.34986715764	5.68284674353	30.4205722208
	H	0.765383314238	11.3013709843	26.3203019397
	H	11.8020730654	10.6016309685	26.7961340616
	H	3.59050595536	9.96622406493	30.2175999361
	H	5.23331390275	9.82253962888	30.3787728872
	H	11.9627490044	4.21009482847	31.5111348483
	H	1.06708048697	3.88639639351	32.164824332
	H	9.53034240491	1.14203002424	24.0885489055
	H	8.04346388058	1.11189790263	23.7654742693
	H	9.81070079109	12.4790607128	31.3121928849
	H	11.2311482121	12.2978919869	30.6476088268
	H	3.5078612637	6.02417320869	31.9349212994
	H	4.76474292897	5.54884870439	31.0600237081
	H	6.89072120827	4.86781026941	24.2386894972
	H	5.95102327232	5.29829326714	22.9148834142
	H	4.77530069295	5.78863498811	28.5569103405
	H	6.23343907926	5.88592827975	29.3886876182
	H	7.40757483194	10.4719389548	24.1759717512
	H	6.10703665574	10.9333108863	25.0367987596
	H	5.03859242059	2.29061696749	29.7933276251
	H	4.78962887835	3.85791852052	29.862139384
	H	11.4331801637	4.21436879017	37.7484589646
	H	10.5205274873	3.83561260782	38.8957827299
	H	2.19751829895	12.6216440293	38.3619401191
	H	2.93363943338	11.3542568198	37.6208510893
	H	5.66065330864	6.55613391997	24.6259519
	H	4.74422678273	7.9862035668	24.6217930949
	H	5.79182093688	11.7797230069	27.3657034356
	H	5.79192067268	10.2455179523	26.9636889711
	H	11.9714590502	7.1205200764	36.3715004186
	H	11.5059797151	5.49904791333	36.3238947592
	H	9.98782433712	6.82792597718	23.2147483828
	H	8.44328583395	6.40638238504	23.3448337151
	H	1.75813375177	6.57939553913	29.7707461611
	H	2.59949112658	6.29305566109	28.369047052
	H	2.10186682833	10.3408182179	28.1787639107
	H	1.44299409739	8.94527187972	28.5514060226
	H	2.94213478471	4.19393279751	36.1672908098
	H	3.1995113966	2.69268641018	36.0932034592
	H	4.58683667599	0.69278887706	35.6910859421
	H	3.23873941135	0.4757938762	36.4337415304
	H	5.2526335246	12.752765077	38.9018094289
	H	6.44672685678	11.6579095879	38.7434612762
	H	7.64489695134	5.98875390065	36.9287792644
	H	7.56133133343	6.78084751679	35.4863795847
	H	1.15934205633	6.34549858469	31.7150946162
	H	1.34566262391	7.89666696072	31.6571680388
	H	0.58825748277	0.561561053272	39.0629410301
	H	11.3844160479	0.552320807184	39.6505304763
	H	5.47488478238	3.03732647752	26.4375168354
	H	6.59552572545	2.84799029972	27.6177155345
	H	8.6638330304	2.64219607632	29.0553631141
	H	8.13025075838	4.09133470901	29.2366207079
	H	3.82527607949	9.4233040331	38.6538285816
	H	4.62027816953	10.5311452981	37.7109403535
	H	11.0613583475	3.96024176506	25.4755467893
	H	11.0584260441	2.36443997161	25.7908135366
	H	6.26624077826	2.70041087052	32.6564876541
	H	7.52064465622	1.70578771849	32.30387036
	H	1.98580455074	3.62995279744	0.154955262475
	H	0.622106886332	4.3286195151	39.5829220638
	H	3.50934659206	4.83033601656	24.2829975861
	H	2.43895482246	3.94379010845	23.6120818485
	H	10.8135632388	1.60955293727	34.4202796291
	H	10.7385527694	2.85728044005	33.4609373763
	H	1.41041640506	7.90958111761	25.8175926056
	H	1.10309720668	7.42025889115	27.2895794569
	H	8.7125476486	2.86608836241	38.0358093497
	H	8.42859829431	3.91119692606	39.2467545693
	H	1.50589054325	8.64428201647	36.4692571974
	H	1.25837077299	8.21444590012	37.9284778428
	H	5.13462812096	1.72657127407	0.706149707083
	H	4.79735472929	2.15808210686	39.0120977899
	H	8.84170074776	2.34995880623	35.3596718387
	H	7.58618948457	3.00072251251	36.1044182253
	H	3.89058802698	2.77958592889	33.1651881025
	H	4.56985491823	4.08624971565	32.9478237615
	H	5.01924049522	12.0138267511	30.4171061613
	H	6.04518483412	12.7713928051	29.5329031629
	H	6.83188153201	7.95461349506	33.9519365871
	H	7.83193211901	8.8794256727	34.5347914479
	H	3.88453041645	6.84738248985	35.6989432315
	H	2.35887273749	6.79018721573	36.290307902
	H	0.759129552497	9.34705696237	0.165531457684
	H	2.22576676645	8.60518871565	0.526469689184
	H	9.22466833989	5.09841352039	25.9323357723
	H	10.0608715047	5.95464122298	26.9425170866
	H	5.57143308642	6.98534346469	32.1343656916
	H	7.05745822012	6.75312678627	32.2594247386
	H	0.872955059447	10.8977631979	35.7804936061
	H	2.13392839946	10.4254466526	34.8785262485
	H	3.38906520758	5.89827963197	37.5692354167
	H	2.71488342265	5.48838411589	38.9562147353
	H	11.9198130299	10.4783394621	23.3054928908
	H	11.4721688736	11.1551207589	24.72920106
	H	12.2033371132	8.99154850609	32.6659905366
	H	0.973255400988	9.29587742818	33.6797753174
	H	8.3462802434	3.09073880111	24.5105606745
	H	7.51130929544	3.47968916621	25.8536232059
	H	6.05171096747	8.03059819908	26.5846272563
	H	7.38732243566	8.43075358307	27.2063683696
	H	10.9787243131	7.679018444	28.6619546376
	H	11.8658991604	6.43702946429	28.7995215018
	H	11.5773676378	3.37214083475	35.408149824
	H	0.711144912156	3.43474174958	35.9413780832
	H	6.30342394433	12.3196497245	23.3805912269
	H	6.17692809369	0.580082596971	22.1508319328
	H	0.422349606842	12.2167072535	23.5311075454
	H	1.26946088202	0.676827139913	23.4066469113
	H	6.35562147422	11.0707332128	33.7464439284
	H	7.09004480664	11.9840026189	34.7738064776
	H	6.99500928674	5.86125250765	39.4919384758
	H	6.65257134669	4.54372907624	38.5204734591
	H	6.5464693264	8.22951363578	30.546020864
	H	6.42776825775	8.90855274728	29.0247697572
	H	10.3793808303	1.73244171675	31.0093713753
	H	9.45558469827	2.76736372634	31.6207492412
	H	9.10054728379	7.64792289911	25.8927140562
	H	9.06292102832	9.19006320083	25.5148070363
	H	11.4737574165	6.14031405083	24.5286999028
	H	0.197016784093	6.6877387173	23.4430594719
	H	3.04905657666	1.58915308458	39.5317545166
	H	2.25719882486	2.31298504869	38.3997065537
	H	7.86912949927	10.311476696	0.0578287633893
	H	8.55893767182	10.9874933415	38.6661428208
	H	0.688671143633	11.0112060088	31.5013481774
	H	0.722059705632	10.8896394058	29.9402546135
	H	9.69903527569	10.3006176837	23.7382135227
	H	8.88922295534	8.79201522419	23.6921254689
	H	10.9414707832	11.2091721486	36.5223471382
	H	11.9023525218	12.1472669121	37.2321267679
	H	6.69507139089	0.995138323903	27.1874084078
	H	7.8729510576	0.251772008708	27.8758358093
...
K_POINTS gamma

