C O H                                   
   1.00000000000000     
    12.3300000000000001    0.0000000000000000    0.0000000000000000
     0.0000000000000000   12.8137000000000008    0.0000000000000000
     0.0000000000000000    0.0000000000000000   39.7959999999999994
   C    O    H 
   360   100   200
Selective dynamics
Direct
  0.0351603424673758  0.3883016067947687  0.0872170803613763   T   T   T
  0.0408977526679012  0.3844565451036867  0.1698655527211040   T   T   T
  0.1318199327262984  0.4453171631405619  0.0869508895282770   T   T   T
  0.1345855659686249  0.5592106450159884  0.0861922010052192   T   T   T
  0.1378763216725338  0.5521507130350809  0.1679528394075916   T   T   T
  0.0373735012636626  0.4940497198489790  0.1670844343609248   T   T   T
  0.1376811200869397  0.6628055450874726  0.1672860136898704   T   T   T
  0.0356219436742513  0.6135620801053104  0.0851344272784191   T   T   T
  0.0349998375988097  0.7269416170882012  0.0833249487785280   T   T   T
  0.0397144245293649  0.7218701527822317  0.1681831775972016   T   T   T
  0.1328397715013524  0.7820580273424800  0.0813826830949187   T   T   T
  0.1335040199454309  0.8943013809360496  0.0806740339743535   T   T   T
  0.1441277674212931  0.8872293374056331  0.1662070102200592   T   T   T
  0.0378283518845938  0.8299343977173554  0.1661934417211318   T   T   T
  0.1396763909161618  0.9954834991998093  0.1662477925521805   T   T   T
  0.0296366414291015  0.9473949558541769  0.0825988912842589   T   T   T
  0.0295027978690657  0.0595790256458423  0.0819749354198131   T   T   T
  0.0389103842855670  0.0503012514957613  0.1651629077637419   T   T   T
  0.1296277444533877  0.1164373017536994  0.0843291569406357   T   T   T
  0.1310980943706309  0.2259971187452598  0.0854581838834987   T   T   T
  0.1345435277160643  0.2204885116023166  0.1692079795941009   T   T   T
  0.0369177314647890  0.1597642244738369  0.1661329901521284   T   T   T
  0.1389337302065602  0.3301521085249736  0.1699943246443678   T   T   T
  0.0341100681390751  0.2791816480323755  0.0866040858797834   T   T   T
  0.2346511404018677  0.3932968793070948  0.0858352292307313   T   T   T
  0.2410376184215225  0.3875583825277707  0.1686731094742954   T   T   T
  0.3335816732970370  0.4469226424560574  0.0809184989742779   T   T   T
  0.3361359230646580  0.5564930990524740  0.0806787916394769   T   T   T
  0.3408045819260240  0.5560110004742881  0.1655044996572725   T   T   T
  0.2401523605473837  0.5000396849880574  0.1693057642939327   T   T   T
  0.3377687907556308  0.6658037953096225  0.1619948799889915   T   T   T
  0.2352804820586048  0.6128662750109909  0.0823149821377778   T   T   T
  0.2339921230565911  0.7244287209550767  0.0841566205847711   T   T   T
  0.2361927159618536  0.7172393416646071  0.1642079358791949   T   T   T
  0.3333704827022322  0.7817310896741584  0.0821449628964589   T   T   T
  0.3341585740016986  0.8955536819163707  0.0816538968911673   T   T   T
  0.3393771627280565  0.8856390018231878  0.1639398640023958   T   T   T
  0.2408043367659255  0.8308878717986319  0.1644123711647731   T   T   T
  0.3385071450424413  0.9978086008677328  0.1660859989067220   T   T   T
  0.2331587473999211  0.9489364255523491  0.0809763459294078   T   T   T
  0.2321030301828893  0.0553569749813140  0.0852379420831550   T   T   T
  0.2374899721422779  0.0533445501171582  0.1679439583312335   T   T   T
  0.3332501522747443  0.1150645617285170  0.0840586933958417   T   T   T
  0.3311793953474703  0.2232829254708363  0.0839884871667180   T   T   T
  0.3375585663524268  0.2199235882299174  0.1693031977241345   T   T   T
  0.2379609423434680  0.1651152970889664  0.1691941400571212   T   T   T
  0.3412989821294785  0.3307853581013416  0.1689770196959481   T   T   T
  0.2341074157333533  0.2831397969951813  0.0853560116059629   T   T   T
  0.4320401321899490  0.3900415744023563  0.0815036490610273   T   T   T
  0.4402175948907944  0.3865953008613512  0.1691261572022780   T   T   T
  0.5339036861688512  0.4486299556497235  0.0801882073624992   T   T   T
  0.5345919564591438  0.5556532700080805  0.0823486246276724   T   T   T
  0.5370246662820556  0.5532927820131927  0.1651890903199984   T   T   T
  0.4387688863313980  0.4978658880538195  0.1687098717961457   T   T   T
  0.5386833562819436  0.6647697042159528  0.1641171525090090   T   T   T
  0.4376763820654461  0.6154376182323581  0.0821472247037995   T   T   T
  0.4343911062630767  0.7249276160584256  0.0828345761496394   T   T   T
  0.4411839662626501  0.7213892499724611  0.1619050571195358   T   T   T
  0.5346074966589554  0.7816573259016604  0.0833127597012273   T   T   T
  0.5364674135018764  0.8930071054653096  0.0829469974274943   T   T   T
  0.5401700178991139  0.8851924016756846  0.1640702174482975   T   T   T
  0.4412646836562135  0.8294784249249154  0.1627066527394916   T   T   T
  0.5365766825218288  0.9968907473463329  0.1649678436947158   T   T   T
  0.4320282923864531  0.9478083866536863  0.0829919788371765   T   T   T
  0.4340051516633676  0.0586219617446676  0.0823934902969480   T   T   T
  0.4385903852284271  0.0534892070433167  0.1655472562103146   T   T   T
  0.5322635764363738  0.1154431689371695  0.0824982251239374   T   T   T
  0.5302963596724063  0.2250262210095785  0.0847577391337169   T   T   T
  0.5350826773998086  0.2174910792933350  0.1688583240540510   T   T   T
  0.4352273903263176  0.1633211016123728  0.1682433964731155   T   T   T
  0.5384222526358448  0.3275259451202300  0.1692227660709867   T   T   T
  0.4288131081575143  0.2791139971260490  0.0832387451707266   T   T   T
  0.6344366092401111  0.3921673521206998  0.0819467570159931   T   T   T
  0.6380964350237605  0.3857196638828739  0.1682996232662247   T   T   T
  0.7342750725884223  0.4449430196193171  0.0810482524540802   T   T   T
  0.7341917049113884  0.5549210593867487  0.0802809725776017   T   T   T
  0.7373684814603847  0.5501434089770333  0.1680465298753200   T   T   T
  0.6370143912275185  0.4948315632857523  0.1681300362950698   T   T   T
  0.7374117667741689  0.6603333242503386  0.1694369969053768   T   T   T
  0.6314289785487058  0.6162348997541480  0.0809553007529652   T   T   T
  0.6324394066583499  0.7275178078480672  0.0822645703672171   T   T   T
  0.6382299954705608  0.7159736914362516  0.1671970240857483   T   T   T
  0.7351080022313161  0.7825955492749224  0.0836205586946160   T   T   T
  0.7353252870776886  0.8943184343906972  0.0832845529116336   T   T   T
  0.7371969462292967  0.8859951647762395  0.1663417562669720   T   T   T
  0.6389856243087366  0.8259662312615572  0.1648616073882920   T   T   T
  0.7368218031603694  0.9954561788162500  0.1669281804911551   T   T   T
  0.6305707261489617  0.9522395973717147  0.0839161043647498   T   T   T
  0.6285022864149328  0.0617986064392512  0.0827768769376412   T   T   T
  0.6370595724538470  0.0536126904221830  0.1671328592522331   T   T   T
  0.7311585841305740  0.1148706813343752  0.0844373470721494   T   T   T
  0.7352619577822377  0.2245942142013380  0.0846993388464490   T   T   T
  0.7425740393898058  0.2215145565629842  0.1679822109753484   T   T   T
  0.6392469602115313  0.1650759895971883  0.1673625295636774   T   T   T
  0.7393274941316801  0.3320448337654117  0.1688635597091439   T   T   T
  0.6301326000767854  0.2814383851902086  0.0847274153622412   T   T   T
  0.8356203172991239  0.3918817695780663  0.0844242150786316   T   T   T
  0.8373518767607150  0.3883641956678688  0.1703992595731577   T   T   T
  0.9364408712200158  0.4492274861097125  0.0877472927725891   T   T   T
  0.9342074263150896  0.5595616605940047  0.0856388343057946   T   T   T
  0.9375878878854293  0.5561358865196211  0.1682168904515432   T   T   T
  0.8397624161251829  0.5009660531052690  0.1699374985710913   T   T   T
  0.9383846722804223  0.6654510371098008  0.1691902021685542   T   T   T
  0.8330991394758896  0.6134803964697382  0.0820894079843566   T   T   T
  0.8332065653761919  0.7235957251066519  0.0835434521674405   T   T   T
  0.8374502427580094  0.7166528251570687  0.1695485538342106   T   T   T
  0.9336935395969290  0.7780488508131310  0.0841144466365571   T   T   T
  0.9307857328673692  0.8931875157357965  0.0824537975228543   T   T   T
  0.9372978707850412  0.8844218730151888  0.1681533322301927   T   T   T
  0.8380821264697726  0.8321438251946794  0.1702320012852673   T   T   T
  0.9359757755714647  0.9996409858763072  0.1646428482292110   T   T   T
  0.8316819526609144  0.9503619724016821  0.0819392433348537   T   T   T
  0.8293730316933471  0.0600941923035390  0.0831337423949953   T   T   T
  0.8367866220708887  0.0566490012412208  0.1675414754102172   T   T   T
  0.9307591383846915  0.1140036411133277  0.0817120975860203   T   T   T
  0.9355624782057951  0.2220464759584685  0.0837886437499349   T   T   T
  0.9378881627818381  0.2182777120320449  0.1679636044549973   T   T   T
  0.8385024404300934  0.1641656572741959  0.1667785644696607   T   T   T
  0.9370455751205087  0.3294489542611691  0.1693430180981015   T   T   T
  0.8365851521213663  0.2831678757349162  0.0846851435239141   T   T   T
  0.9821043973144802  0.4029751188374305  0.2523494823600387   T   T   F
  0.9944041122159266  0.3894174110554633  0.3364659764800493   T   T   F
  0.0818716707058478  0.4585725914378399  0.2523494823600387   T   T   F
  0.0832788247675824  0.5670672558094737  0.2523494823600387   T   T   F
  0.0922011898885814  0.5606801459252370  0.3364659764800493   T   T   F
  0.9942612784830659  0.5030758448632680  0.3364659764800493   T   T   F
  0.0925461663892073  0.6720406646106497  0.3364659764800493   T   T   F
  0.9835983034847400  0.6214854607904873  0.2523494823600387   T   T   F
  0.9835460580318972  0.7317516845461297  0.2523494823600387   T   T   F
  0.9918938805372922  0.7260580864504745  0.3364659764800493   T   T   F
  0.0801824574565390  0.7871903728310105  0.2523494823600387   T   T   F
  0.0800452471179251  0.8978405905969417  0.2523494823600387   T   T   F
  0.0939914562995888  0.8928207578061776  0.3364659764800493   T   T   F
  0.9935474369871713  0.8376026410420181  0.3364659764800493   T   T   F
  0.0958251940481306  0.0032880842048644  0.3364659764800493   T   T   F
  0.9835597576749670  0.9557153411702507  0.2523494823600387   T   T   F
  0.9843127239910825  0.0689766241450087  0.2523494823600387   T   T   F
  0.9968043059487800  0.0583686827404674  0.3364659764800493   T   T   F
  0.0834663711023964  0.1242042767961487  0.2523494823600387   T   T   F
  0.0828334912874216  0.2353699390187938  0.2523494823600387   T   T   F
  0.0940860426205186  0.2237077121076153  0.3364659764800493   T   T   F
  0.9943509188805485  0.1696417910252834  0.3364659764800493   T   T   F
  0.0916870458264980  0.3349200730126273  0.3364659764800493   T   T   F
  0.9832378020963234  0.2898586938446355  0.2523494823600387   T   T   F
  0.1848224129924720  0.3995413399399382  0.2523494823600387   T   T   F
  0.1926067671477797  0.3938286432201513  0.3364659764800493   T   T   F
  0.2836720192995725  0.4551397579766246  0.2523494823600387   T   T   F
  0.2837151175284288  0.5636050956036919  0.2523494823600387   T   T   F
  0.2927172139772656  0.5571165383962409  0.3364659764800493   T   T   F
  0.1919550527973665  0.5032200571495899  0.3364659764800493   T   T   F
  0.2908018400998605  0.6654268210988521  0.3364659764800493   T   T   F
  0.1828931716304428  0.6230663268824173  0.2523494823600387   T   T   F
  0.1813933264511943  0.7325982261026084  0.2523494823600387   T   T   F
  0.1939696286801372  0.7260791824675342  0.3364659764800493   T   T   F
  0.2781407326689556  0.7882580956292279  0.2523494823600387   T   T   F
  0.2797613880876839  0.8996534324608669  0.2523494823600387   T   T   F
  0.2925606886047525  0.8908184640714432  0.3364659764800493   T   T   F
  0.1948175447130703  0.8361949522244149  0.3364659764800493   T   T   F
  0.2944391624626626  0.0003997702727646  0.3364659764800493   T   T   F
  0.1813076167189324  0.9542191414707719  0.2523494823600387   T   T   F
  0.1807942672381569  0.0673426236513563  0.2523494823600387   T   T   F
  0.1945142327704373  0.0575366174978391  0.3364659764800493   T   T   F
  0.2811294887751825  0.1218694855088038  0.2523494823600387   T   T   F
  0.2789663719258748  0.2342897346474120  0.2523494823600387   T   T   F
  0.2924503582719590  0.2297943868571189  0.3364659764800493   T   T   F
  0.1956251951678566  0.1695337704265207  0.3364659764800493   T   T   F
  0.2942712871545257  0.3398346865316357  0.3364659764800493   T   T   F
  0.1802344129156198  0.2907106803977798  0.2523494823600387   T   T   F
  0.3825013138269508  0.3969154496794001  0.2523494823600387   T   T   F
  0.3951079041024365  0.3921281872133733  0.3364659764800493   T   T   F
  0.4781605736647729  0.4567535793037770  0.2523494823600387   T   T   F
  0.4794689250568722  0.5655053581728473  0.2523494823600387   T   T   F
  0.4946130089681017  0.5568975689376197  0.3364659764800493   T   T   F
  0.3938418597688185  0.4998046851010438  0.3364659764800493   T   T   F
  0.4920065884929296  0.6676648247099770  0.3364659764800493   T   T   F
  0.3819530366566210  0.6214171677237000  0.2523494823600387   T   T   F
  0.3786651565373618  0.7317488624029406  0.2523494823600387   T   T   F
  0.3928083254751072  0.7255740914973410  0.3364659764800493   T   T   F
  0.4781638083838032  0.7874109187870308  0.2523494823600387   T   T   F
  0.4827048236775232  0.8960229607482980  0.2523494823600387   T   T   F
  0.4932493188318466  0.8953450534885730  0.3364659764800493   T   T   F
  0.3941451283179065  0.8351707582724590  0.3364659764800493   T   T   F
  0.4931259273627152  0.0046771809073190  0.3364659764800493   T   T   F
  0.3831467343531941  0.9552884147830976  0.2523494823600387   T   T   F
  0.3806975235370408  0.0664610867873281  0.2523494823600387   T   T   F
  0.3932691672807749  0.0591357548912205  0.3364659764800493   T   T   F
  0.4820596601691360  0.1207957214417066  0.2523494823600387   T   T   F
  0.4831934574269713  0.2301482923727192  0.2523494823600387   T   T   F
  0.4937367836296969  0.2239141868292002  0.3364659764800493   T   T   F
  0.3929293257234292  0.1699265109740058  0.3364659764800493   T   T   F
  0.4952686868222319  0.3358974290327889  0.3364659764800493   T   T   F
  0.3802675444921721  0.2870294241891930  0.2523494823600387   T   T   F
  0.5766375235162766  0.3977768524115611  0.2523494823600387   T   T   F
  0.5936814335838438  0.3953026479985312  0.3364659764800493   T   T   F
  0.6807704827421935  0.4515999885871836  0.2523494823600387   T   T   F
  0.6777043158345555  0.5633117410313865  0.2523494823600387   T   T   F
  0.6949423844768280  0.5598964457312353  0.3364659764800493   T   T   F
  0.5934927873251981  0.5047143653446834  0.3364659764800493   T   T   F
  0.6926223241996785  0.6662290155411904  0.3364659764800493   T   T   F
  0.5805659050295313  0.6225268104035275  0.2523494823600387   T   T   F
  0.5800043594146623  0.7314704977980817  0.2523494823600387   T   T   F
  0.5916005338273601  0.7237889617507351  0.3364659764800493   T   T   F
  0.6795805242438324  0.7874427748660101  0.2523494823600387   T   T   F
  0.6829095439998827  0.8989189555644284  0.2523494823600387   T   T   F
  0.6942135833765554  0.8915260697210938  0.3364659764800493   T   T   F
  0.5920610168750088  0.8342378396985584  0.3364659764800493   T   T   F
  0.6951625271437833  0.0011532892322987  0.3364659764800493   T   T   F
  0.5828178176288421  0.9517200176458528  0.2523494823600387   T   T   F
  0.5821671477062272  0.0618074911769656  0.2523494823600387   T   T   F
  0.5966387041213722  0.0590630385050736  0.3364659764800493   T   T   F
  0.6828506897092094  0.1222899312892198  0.2523494823600387   T   T   F
  0.6837121010277850  0.2294029837269831  0.2523494823600387   T   T   F
  0.6927640301620368  0.2270666355558571  0.3364659764800493   T   T   F
  0.5955128175234410  0.1703788097156543  0.3364659764800493   T   T   F
  0.6957906848050911  0.3374244565172901  0.3364659764800493   T   T   F
  0.5810952038087078  0.2863280745348059  0.2523494823600387   T   T   F
  0.7811353177134065  0.3957752303827258  0.2523494823600387   T   T   F
  0.7928429444388950  0.3900727205548459  0.3364659764800493   T   T   F
  0.8794004997148951  0.4535064354411845  0.2523494823600387   T   T   F
  0.8800368556190377  0.5674843818917489  0.2523494823600387   T   T   F
  0.8925732875952044  0.5569429419032034  0.3364659764800493   T   T   F
  0.7944935420436977  0.5017238714225205  0.3364659764800493   T   T   F
  0.8915597306162499  0.6671333981471065  0.3364659764800493   T   T   F
  0.7787075876534759  0.6226993398553354  0.2523494823600387   T   T   F
  0.7815041481302255  0.7339831166254581  0.2523494823600387   T   T   F
  0.7939598373402311  0.7270403597742803  0.3364659764800493   T   T   F
  0.8839466769005455  0.7892951097792505  0.2523494823600387   T   T   F
  0.8835374382005581  0.9006105572931448  0.2523494823600387   T   T   F
  0.8940338648245846  0.8916613580602994  0.3364659764800493   T   T   F
  0.7948112183049899  0.8378047069144265  0.3364659764800493   T   T   F
  0.8973053819814049  0.0045575596278467  0.3364659764800493   T   T   F
  0.7823032406463537  0.9574086038786506  0.2523494823600387   T   T   F
  0.7806390422059648  0.0682897554552886  0.2523494823600387   T   T   F
  0.7959341589051564  0.0541699392511863  0.3364659764800493   T   T   F
  0.8847458171801804  0.1232723499203121  0.2523494823600387   T   T   F
  0.8840833538411472  0.2337152387289294  0.2523494823600387   T   T   F
  0.8963284370470419  0.2243734327957669  0.3364659764800493   T   T   F
  0.7940100022909984  0.1672503146220460  0.3364659764800493   T   T   F
  0.8940292742623694  0.3361725177673601  0.3364659764800493   T   T   F
  0.7839248032458218  0.2856434307161806  0.2523494823600387   T   T   F
  0.0267683027982200  0.3951255020980946  0.4253473151509449   T   T   T
  0.0179699523981725  0.3909273287676675  0.5085901963976263   T   T   T
  0.1241269032662559  0.4536753712033660  0.4281602165579245   T   T   T
  0.1267248319434839  0.5657791505374689  0.4283602881518205   T   T   T
  0.1191932782782526  0.5580723932490911  0.5101093220912507   T   T   T
  0.0198099442957285  0.5015872801352418  0.5096727819480460   T   T   T
  0.1228106519269091  0.6674235425092567  0.5152271808870792   T   T   T
  0.0248840681869007  0.6226567935047472  0.4250355699977011   T   T   T
  0.0237939906582437  0.7325196421896113  0.4240049949612138   T   T   T
  0.0146182742092248  0.7274666089046558  0.5164533461950115   T   T   T
  0.1258202778611343  0.7892905425174580  0.4235483838176984   T   T   T
  0.1271144924143111  0.8987936727576522  0.4224768163065877   T   T   T
  0.1137935331744681  0.8920741249830469  0.5101768771908355   T   T   T
  0.0132707618308855  0.8366781847545476  0.5124166468461644   T   T   T
  0.1140154982595306  0.0028410225352323  0.5082066871770770   T   T   T
  0.0266277471462786  0.9561180030824952  0.4232211780561059   T   T   T
  0.0207580789174317  0.0648477558146958  0.4221687147256796   T   T   T
  0.0127732959735711  0.0612062263998052  0.5094247887705395   T   T   T
  0.1237385720552067  0.1174547656986923  0.4234619182749761   T   T   T
  0.1231757531994171  0.2261530390169442  0.4236079021390137   T   T   T
  0.1123698773730075  0.2241703614118105  0.5091026985035128   T   T   T
  0.0144838481115175  0.1697400960867838  0.5091259010471691   T   T   T
  0.1154800394469775  0.3348712342826527  0.5107755017130068   T   T   T
  0.0273242714903645  0.2887509988805689  0.4253126176528942   T   T   T
  0.2278529108824658  0.3988369629382752  0.4276922191675577   T   T   T
  0.2146916236467102  0.3905140605876889  0.5105659762270582   T   T   T
  0.3253744921902532  0.4565207073557205  0.4249321173740016   T   T   T
  0.3247665890854121  0.5693145227202602  0.4265402695809256   T   T   T
  0.3175383015752606  0.5552179790949403  0.5100626037415120   T   T   T
  0.2193737616678804  0.4984805986556331  0.5112821144758043   T   T   T
  0.3187815181187673  0.6683057145034670  0.5076365099452689   T   T   T
  0.2233305719848795  0.6238657941568807  0.4268323335475344   T   T   T
  0.2243425655761022  0.7316824788862419  0.4220050353777662   T   T   T
  0.2202836952232618  0.7250834259180351  0.5110249119630116   T   T   T
  0.3242315934810771  0.7892918709193015  0.4211272669298153   T   T   T
  0.3246479256591959  0.8996321721736910  0.4184949486649534   T   T   T
  0.3143305645509599  0.8925033204948116  0.5073040603088795   T   T   T
  0.2175268220196298  0.8365001876923158  0.5104730524086142   T   T   T
  0.3155223582816042  0.0048833070111466  0.5076422361399807   T   T   T
  0.2261614148288868  0.9545050079739434  0.4212487869255554   T   T   T
  0.2250611656455810  0.0648920107480385  0.4223163680983236   T   T   T
  0.2152389869115826  0.0611118067489442  0.5072898224600817   T   T   T
  0.3257223923572160  0.1189263706104614  0.4244436101618899   T   T   T
  0.3249880402265203  0.2316718526315493  0.4251568864918840   T   T   T
  0.3175644315873872  0.2272887572272086  0.5088728267116894   T   T   T
  0.2163026760002855  0.1727288634717399  0.5090497341511436   T   T   T
  0.3164028647324542  0.3370076997609171  0.5092360672006480   T   T   T
  0.2256257619978755  0.2833368598335073  0.4256060099379801   T   T   T
  0.4262394183746794  0.4003494729495867  0.4242128363254865   T   T   T
  0.4159119059861613  0.3908160238195892  0.5082077310320366   T   T   T
  0.5262695245906553  0.4524819702383644  0.4196182644771547   T   T   T
  0.5250346956910509  0.5667169559594240  0.4229071260088999   T   T   T
  0.5167807861177870  0.5593203417611717  0.5078100595576881   T   T   T
  0.4153735429448538  0.5038114587806674  0.5095676386966397   T   T   T
  0.5180253969626285  0.6703261587951621  0.5064531086085432   T   T   T
  0.4260655142917096  0.6197438466390671  0.4244478175322491   T   T   T
  0.4263679593987964  0.7320573534493201  0.4227098161933504   T   T   T
  0.4166674593369818  0.7244965411245222  0.5055128697132791   T   T   T
  0.5227042335339187  0.7900733872238731  0.4213475565362621   T   T   T
  0.5260078782289828  0.9013974664235368  0.4207132186435529   T   T   T
  0.5134228019756164  0.8880424267608167  0.5030353020362992   T   T   T
  0.4136463279736250  0.8348462207043511  0.5022050680162045   T   T   T
  0.5162430101725135  0.9986796680322301  0.5035854590151774   T   T   T
  0.4255788812400630  0.9537837294114218  0.4200422668274585   T   T   T
  0.4299717962383617  0.0642298060084771  0.4216923900480707   T   T   T
  0.4172242897570764  0.0607530516313370  0.5079430424730678   T   T   T
  0.5274912314474653  0.1262483196871260  0.4204295561641059   T   T   T
  0.5255380329616305  0.2345032210639602  0.4216279646866887   T   T   T
  0.5125298727869418  0.2258302527909659  0.5065679127168120   T   T   T
  0.4126223361655368  0.1708488391712301  0.5077597371433153   T   T   T
  0.5127975766656959  0.3357290537963816  0.5057703381309628   T   T   T
  0.4259511677141137  0.2901846725600423  0.4231169805082839   T   T   T
  0.6296857541888755  0.3990658144332569  0.4189474701742026   T   T   T
  0.6128419323196593  0.3921436022547036  0.5057471629403382   T   T   T
  0.7275257652989954  0.4524707716231249  0.4206647513672291   T   T   T
  0.7258229342497042  0.5636654428314603  0.4221154540030678   T   T   T
  0.7198627484070800  0.5601321121935071  0.5100566916895890   T   T   T
  0.6165640377630968  0.5031477746446429  0.5092857939880363   T   T   T
  0.7199467442381494  0.6723967301038920  0.5115337862435383   T   T   T
  0.6251114098674555  0.6200818474130665  0.4233221010634080   T   T   T
  0.6244141058543509  0.7335400140344460  0.4227212211646833   T   T   T
  0.6182990686275048  0.7269730203225468  0.5051160294081374   T   T   T
  0.7259367382329531  0.7880719432252329  0.4250354285751413   T   T   T
  0.7263575228593844  0.8998934292109536  0.4245975622336305   T   T   T
  0.7130488072334604  0.8920967599463726  0.5070462848805559   T   T   T
  0.6167183111099932  0.8358753004001805  0.5061682816634140   T   T   T
  0.7162569385861467  0.0019291494169543  0.5053736438812223   T   T   T
  0.6270996194316084  0.9559978131327592  0.4238783920731536   T   T   T
  0.6263880161167326  0.0693564334565022  0.4228372506763328   T   T   T
  0.6141961717874059  0.0564191777962596  0.5039005651211464   T   T   T
  0.7259311192183999  0.1240873011546729  0.4227828879472229   T   T   T
  0.7254739063911290  0.2325885701536704  0.4215728082547454   T   T   T
  0.7147223364215654  0.2245738844432774  0.5057871172408026   T   T   T
  0.6153801030534901  0.1681822369412997  0.5058001169693539   T   T   T
  0.7157613899008479  0.3367923983170041  0.5054833965862371   T   T   T
  0.6271870840754955  0.2901424317430438  0.4192953286324261   T   T   T
  0.8262260339798255  0.3967140849861303  0.4206992477264245   T   T   T
  0.8153925883062000  0.3917616099823632  0.5082199841321017   T   T   T
  0.9274555305488127  0.4530059321713177  0.4225924308306462   T   T   T
  0.9252836597743528  0.5668421137741720  0.4234454672520339   T   T   T
  0.9190796851408749  0.5551827437009792  0.5127662039993949   T   T   T
  0.8187984485737666  0.5026337815799136  0.5112671211172484   T   T   T
  0.9172341495055657  0.6682591076079261  0.5144085152707655   T   T   T
  0.8225751016420129  0.6209718509379759  0.4231898820599423   T   T   T
  0.8243636945083702  0.7325964159446822  0.4256677501974557   T   T   T
  0.8174359101081576  0.7234265780896276  0.5138170375848650   T   T   T
  0.9257183592373138  0.7882897356077362  0.4283034731855652   T   T   T
  0.9277427082506007  0.8996446334449097  0.4267893778760240   T   T   T
  0.9116541541491489  0.8910448849572498  0.5111984114095687   T   T   T
  0.8144674270034609  0.8346932796228169  0.5108678904732791   T   T   T
  0.9111590562319059  0.0027382889902569  0.5083777227376585   T   T   T
  0.8264557594859041  0.9543143427094769  0.4259508119905456   T   T   T
  0.8239593509600055  0.0657230602988063  0.4236962306372710   T   T   T
  0.8128970477355979  0.0598883276678017  0.5084160215581903   T   T   T
  0.9213405740997961  0.1214047740757695  0.4244350125369758   T   T   T
  0.9238290394957963  0.2381834905823579  0.4254605109665464   T   T   T
  0.9143793355809892  0.2233609237033005  0.5098068329152087   T   T   T
  0.8139688738857382  0.1705922246974503  0.5062321416107014   T   T   T
  0.9148745774373107  0.3354031882549763  0.5083500680735746   T   T   T
  0.8267858899575367  0.2890145674972352  0.4233934020300280   T   T   T
  0.2231990225687993  0.0953781136213465  0.7122171034483031   T   T   T
  0.7668763110060073  0.9744176932506220  0.7085663592179536   T   T   T
  0.3104320184334079  0.0708046289014216  0.6170904573972672   T   T   T
  0.8930725633743167  0.7534257100647421  0.7008743309520814   T   T   T
  0.5920321329341331  0.6292002355411759  0.0015586308294340   T   T   T
  0.5373196089277478  0.0185254644232179  0.9025580643947830   T   T   T
  0.4250535002646462  0.2842193524392743  0.9635353127403422   T   T   T
  0.7885748857165816  0.0634108951101678  0.0111461548959387   T   T   T
  0.3195222803718303  0.4657642137380297  0.6831828329211227   T   T   T
  0.8697672352060344  0.4854261692819554  0.8337292202210331   T   T   T
  0.1801420772449554  0.2074377452415564  0.8024813860692771   T   T   T
  0.1721441752333258  0.0376751394786237  0.8410146975592967   T   T   T
  0.3049990916452030  0.7445831042097794  0.6026815859994795   T   T   T
  0.3796221976544729  0.8070879374651413  0.8337818321046572   T   T   T
  0.7286830506149189  0.7654250640562806  0.8681313318990734   T   T   T
  0.0933888460660949  0.1997708086292703  0.5945443756834431   T   T   T
  0.6588487299941193  0.4203827496849843  0.8158344340222736   T   T   T
  0.9764773477758552  0.8184580279646342  0.0102125416517937   T   T   T
  0.8740580799851015  0.6856551300204676  0.8098427047024837   T   T   T
  0.7827081936949847  0.7983952498361067  0.9415683922921911   T   T   T
  0.3547341259555302  0.6529721975323071  0.8887949549295606   T   T   T
  0.3764278409554244  0.6423295599853902  0.9973569526000164   T   T   T
  0.2011732165830605  0.9081717254190920  0.6742260224384841   T   T   T
  0.4820243234740139  0.2983932242707953  0.8982731717360622   T   T   T
  0.9076177540732077  0.5510302416375951  0.0089876666732882   T   T   T
  0.6411454398098567  0.0053949368792738  0.8039960672052381   T   T   T
  0.3257177016477839  0.2290271977881762  0.6536119359733557   T   T   T
  0.9159975935964596  0.0062002392443130  0.8511130906724051   T   T   T
  0.8378373268093160  0.0652093002609877  0.6466841371169022   T   T   T
  0.7445807296507192  0.7659692630017311  0.7540543031729748   T   T   T
  0.1089778005482665  0.2701197515370036  0.6945543281642196   T   T   T
  0.1352799593022498  0.5809683424191109  0.5929076056525424   T   T   T
  0.7710240719130017  0.6123310484652276  0.9606631250868657   T   T   T
  0.6698111143962461  0.4661673753387322  0.7411866985762845   T   T   T
  0.9849318974298180  0.8776804256472538  0.6560198924071678   T   T   T
  0.3586599514057036  0.8077071106415007  0.7713654405557481   T   T   T
  0.0307389797679286  0.3582352520989109  0.8039889814428767   T   T   T
  0.7140563413828478  0.1359191638875471  0.5953043245711130   T   T   T
  0.8422842991368682  0.0027010824274507  0.7684285466816312   T   T   T
  0.3606053077237834  0.4436407490766784  0.8049511554616322   T   T   T
  0.5241109776468816  0.4393370102272187  0.5956706777832739   T   T   T
  0.4282273756379072  0.4349251785457559  0.7404650084422998   T   T   T
  0.5189336894636034  0.8350769087401909  0.6055950701282971   T   T   T
  0.3532127871257881  0.2356829844789257  0.7548210487919644   T   T   T
  0.9092435728336609  0.3529561181391737  0.9715142929256225   T   T   T
  0.1952157706837160  0.9510305822809811  0.9412054416454291   T   T   T