&control
   prefix = 'h'
   calculation = 'scf'
   restart_mode = 'from_scratch'
   wf_collect = .true.
   tstress = .true.
   tprnfor = .true.
   outdir = './'
   wfcdir = './'
   pseudo_dir = './'
/
&system
   ibrav = 0
   celldm(1) = 13.228
   nat = 1
   ntyp = 1
   nbnd = 10
   ecutwfc = 60.0
/
&electrons
   electron_maxstep = 100
   conv_thr = 1.0d-10
   mixing_mode = 'plain'
   mixing_beta = 0.7
   mixing_ndim = 8
   diagonalization = 'david'
   diago_david_ndim = 4
   diago_full_acc = .true.
/
CELL_PARAMETERS
       1.000000000   0.000000000   0.000000000
       0.000000000   1.000000000   0.000000000
       0.000000000   0.000000000   1.000000000
ATOMIC_SPECIES
   H  1.07  H.UPF
ATOMIC_POSITIONS bohr
   H  -1.066000000   0.000000000   0.000000000
K_POINTS gamma
